2nd_year/IO (Operational Investigation)/TP2_IO.txt
22
45
21 22 0 1000
21 1 1 1000
21 2 15 1000
21 3 2 1000
21 4 4 1000
21 6 11 1000
21 7 9 1000
21 8 9 1000
21 9 9 1000
21 10 10 1000
11 22 2 1000
12 22 16 1000
13 22 3 1000
14 22 5 1000
16 22 12 1000
17 22 10 1000
18 22 10 1000
19 22 10 1000
20 22 11 1000
12 7 6 1000
13 1 5 1000
13 2 11 1000
13 7 6 1000
14 1 6 1000
14 2 14 1000
14 6 8 1000
14 7 8 1000
14 10 11 1000
16 7 5 1000
18 1 5 1000
18 2 11 1000
18 3 0 1000
18 6 10 1000
18 7 10 1000
18 10 6 1000
19 1 0 1000
19 2 13 1000
19 3 5 1000
19 6 10 1000
19 7 7 1000
19 8 5 1000
19 10 7 1000
20 1 7 1000
20 2 4 1000
20 7 5 1000
-1
-1
-1
-1
0
-1
-1
-1
-1
-1
1
1
1
1
0
1
1
1
1
1
20
-20




